sat
(:added-eqs           14975
 :binary-propagations 3457
 :conflicts           89
 :decisions           127
 :final-checks        1
 :max-memory          52.03
 :memory              17.68
 :minimized-lits      628
 :mk-bool-var         620
 :mk-clause           487
 :mk-clause-binary    641
 :num-allocs          535418
 :num-checks          1
 :propagations        5152
 :rlimit-count        78636
 :time                0.03
 :total-time          0.03)
